Generations:
0: ((10, 12, 46, 4, 3, 45, 40, 18, 26, 7, 17, 41, 9, 48, 33, 13, 23, 49, 15, 11, 25, 31, 29, 22, 44, 37, 24, 47, 20, 30, 8, 27, 6, 16, 38, 21, 5, 0, 14, 19, 1, 35, 43, 34, 36, 42, 2, 39, 32, 28), 1212)
1: ((10, 12, 46, 4, 3, 45, 40, 18, 26, 7, 17, 41, 9, 48, 33, 13, 23, 49, 15, 11, 25, 31, 29, 22, 44, 37, 24, 47, 20, 30, 8, 27, 6, 16, 38, 21, 5, 0, 14, 19, 1, 35, 43, 34, 36, 42, 2, 39, 32, 28), 1212)
2: ((10, 12, 46, 4, 3, 45, 40, 18, 26, 7, 17, 41, 9, 48, 33, 13, 23, 49, 15, 11, 25, 31, 29, 22, 44, 37, 24, 47, 20, 30, 8, 27, 6, 16, 38, 21, 5, 0, 14, 19, 1, 35, 43, 34, 36, 42, 2, 39, 32, 28), 1212)
3: ((4, 47, 33, 10, 1, 38, 20, 17, 35, 34, 36, 32, 12, 44, 7, 11, 48, 6, 8, 39, 42, 30, 41, 0, 21, 43, 23, 19, 24, 49, 2, 45, 18, 3, 46, 26, 15, 40, 14, 29, 13, 31, 9, 22, 27, 5, 16, 28, 37, 25), 1203)
4: ((4, 47, 33, 10, 1, 38, 20, 17, 35, 34, 36, 32, 12, 44, 7, 11, 48, 6, 8, 39, 42, 30, 41, 0, 21, 43, 23, 19, 24, 49, 2, 45, 18, 3, 46, 26, 15, 40, 14, 29, 13, 31, 9, 22, 27, 5, 16, 28, 37, 25), 1203)
5: ((4, 47, 33, 10, 1, 38, 20, 17, 35, 34, 36, 32, 12, 44, 7, 11, 48, 6, 8, 39, 42, 30, 41, 0, 21, 43, 23, 19, 24, 49, 2, 45, 18, 3, 46, 26, 15, 40, 14, 29, 13, 31, 9, 22, 27, 5, 16, 28, 37, 25), 1203)
6: ((30, 23, 38, 26, 0, 16, 42, 33, 21, 41, 40, 12, 37, 35, 6, 28, 49, 10, 47, 29, 4, 20, 44, 15, 43, 36, 32, 39, 31, 9, 13, 5, 22, 19, 14, 17, 2, 27, 3, 8, 11, 7, 18, 24, 45, 46, 48, 34, 1, 25), 1170)
7: ((30, 23, 38, 26, 0, 16, 42, 33, 21, 41, 40, 12, 37, 35, 6, 28, 49, 10, 47, 29, 4, 20, 44, 15, 43, 36, 32, 39, 31, 9, 13, 5, 22, 19, 14, 17, 2, 27, 3, 8, 11, 7, 18, 24, 45, 46, 48, 34, 1, 25), 1170)
8: ((30, 23, 38, 26, 0, 16, 42, 33, 21, 41, 40, 12, 37, 35, 6, 28, 49, 10, 47, 29, 4, 20, 44, 15, 43, 36, 32, 39, 31, 9, 13, 5, 22, 19, 14, 17, 2, 27, 3, 8, 11, 7, 18, 24, 45, 46, 48, 34, 1, 25), 1170)
9: ((30, 23, 38, 26, 0, 16, 42, 33, 21, 41, 40, 12, 37, 35, 6, 28, 49, 10, 47, 29, 4, 20, 44, 15, 43, 36, 32, 39, 31, 9, 13, 5, 22, 19, 14, 17, 2, 27, 3, 8, 11, 7, 18, 24, 45, 46, 48, 34, 1, 25), 1170)
10: ((46, 11, 47, 15, 28, 20, 4, 41, 17, 32, 49, 25, 30, 23, 44, 31, 9, 13, 22, 3, 7, 18, 24, 29, 33, 40, 45, 26, 48, 10, 8, 27, 6, 16, 38, 21, 5, 0, 14, 19, 1, 35, 43, 34, 36, 42, 2, 39, 12, 37), 1157)
11: ((46, 11, 47, 15, 28, 20, 4, 41, 17, 32, 49, 25, 30, 23, 44, 31, 9, 13, 22, 3, 7, 18, 24, 29, 33, 40, 45, 26, 48, 10, 8, 27, 6, 16, 38, 21, 5, 0, 14, 19, 1, 35, 43, 34, 36, 42, 2, 39, 12, 37), 1157)
12: ((46, 11, 47, 15, 28, 20, 4, 41, 17, 32, 49, 25, 30, 23, 44, 31, 9, 13, 22, 3, 7, 18, 24, 29, 33, 40, 45, 26, 48, 10, 8, 27, 6, 16, 38, 21, 5, 0, 14, 19, 1, 35, 43, 34, 36, 42, 2, 39, 12, 37), 1157)
13: ((46, 11, 47, 15, 28, 20, 4, 41, 17, 32, 49, 25, 30, 23, 44, 31, 9, 13, 22, 3, 7, 18, 24, 29, 33, 40, 45, 26, 48, 10, 8, 27, 6, 16, 38, 21, 5, 0, 14, 19, 1, 35, 43, 34, 36, 42, 2, 39, 12, 37), 1157)
14: ((46, 11, 47, 15, 28, 20, 4, 41, 17, 32, 49, 25, 30, 23, 44, 31, 9, 13, 22, 3, 7, 18, 24, 29, 33, 40, 45, 26, 48, 10, 8, 27, 6, 16, 38, 21, 5, 0, 14, 19, 1, 35, 43, 34, 36, 42, 2, 39, 12, 37), 1157)
15: ((46, 11, 47, 15, 28, 20, 4, 41, 17, 32, 49, 25, 30, 23, 44, 31, 9, 13, 22, 3, 7, 18, 24, 29, 33, 40, 45, 26, 48, 10, 8, 27, 6, 16, 38, 21, 5, 0, 14, 19, 1, 35, 43, 34, 36, 42, 2, 39, 12, 37), 1157)
16: ((46, 11, 47, 15, 28, 20, 4, 41, 17, 32, 49, 25, 30, 23, 44, 31, 9, 13, 22, 3, 7, 18, 24, 29, 33, 40, 45, 26, 48, 10, 8, 27, 6, 16, 38, 21, 5, 0, 14, 19, 1, 35, 43, 34, 36, 42, 2, 39, 12, 37), 1157)
17: ((46, 11, 47, 15, 28, 20, 4, 41, 17, 32, 49, 25, 30, 23, 44, 31, 9, 13, 22, 3, 7, 18, 24, 29, 33, 40, 45, 26, 48, 10, 8, 27, 6, 16, 38, 21, 5, 0, 14, 19, 1, 35, 43, 34, 36, 42, 2, 39, 12, 37), 1157)
18: ((46, 11, 47, 15, 28, 20, 4, 41, 17, 32, 49, 25, 30, 23, 44, 31, 9, 13, 22, 3, 7, 18, 24, 29, 33, 40, 45, 26, 48, 10, 8, 27, 6, 16, 38, 21, 5, 0, 14, 19, 1, 35, 43, 34, 36, 42, 2, 39, 12, 37), 1157)
19: ((46, 11, 47, 15, 28, 20, 4, 41, 17, 32, 49, 25, 30, 23, 44, 31, 9, 13, 22, 3, 7, 18, 24, 29, 33, 40, 45, 26, 48, 10, 8, 27, 6, 16, 38, 21, 5, 0, 14, 19, 1, 35, 43, 34, 36, 42, 2, 39, 12, 37), 1157)
20: ((46, 11, 47, 15, 28, 20, 4, 41, 17, 32, 49, 25, 30, 23, 44, 31, 9, 13, 22, 3, 7, 18, 24, 29, 33, 40, 45, 26, 48, 10, 8, 27, 6, 16, 38, 21, 5, 0, 14, 19, 1, 35, 43, 34, 36, 42, 2, 39, 12, 37), 1157)
21: ((46, 11, 47, 15, 28, 20, 4, 41, 17, 32, 49, 25, 30, 23, 44, 31, 9, 13, 22, 3, 7, 18, 24, 29, 33, 40, 45, 26, 48, 10, 8, 27, 6, 16, 38, 21, 5, 0, 14, 19, 1, 35, 43, 34, 36, 42, 2, 39, 12, 37), 1157)
22: ((46, 11, 47, 15, 28, 20, 4, 41, 17, 32, 49, 25, 30, 23, 44, 31, 9, 13, 22, 3, 7, 18, 24, 29, 33, 40, 45, 26, 48, 10, 8, 27, 6, 16, 38, 21, 5, 0, 14, 19, 1, 35, 43, 34, 36, 42, 2, 39, 12, 37), 1157)
23: ((46, 11, 47, 15, 28, 20, 4, 41, 17, 32, 49, 25, 30, 23, 44, 31, 9, 13, 22, 3, 7, 18, 24, 29, 33, 40, 45, 26, 48, 10, 8, 27, 6, 16, 38, 21, 5, 0, 14, 19, 1, 35, 43, 34, 36, 42, 2, 39, 12, 37), 1157)
24: ((46, 11, 47, 15, 28, 20, 4, 41, 17, 32, 49, 25, 30, 23, 44, 31, 9, 13, 22, 3, 7, 18, 24, 29, 33, 40, 45, 26, 48, 10, 8, 27, 6, 16, 38, 21, 5, 0, 14, 19, 1, 35, 43, 34, 36, 42, 2, 39, 12, 37), 1157)
25: ((46, 11, 47, 15, 28, 20, 4, 41, 17, 32, 49, 25, 30, 23, 44, 31, 9, 13, 22, 3, 7, 18, 24, 29, 33, 40, 45, 26, 48, 10, 8, 27, 6, 16, 38, 21, 5, 0, 14, 19, 1, 35, 43, 34, 36, 42, 2, 39, 12, 37), 1157)
26: ((47, 29, 28, 20, 4, 41, 43, 36, 17, 32, 49, 25, 30, 23, 44, 31, 9, 13, 3, 7, 18, 24, 15, 33, 40, 45, 26, 48, 10, 8, 27, 6, 16, 38, 21, 5, 0, 14, 22, 19, 1, 35, 34, 42, 2, 39, 12, 37, 46, 11), 1157)
27: ((47, 29, 28, 20, 4, 41, 43, 36, 17, 32, 49, 25, 30, 23, 44, 31, 9, 13, 3, 7, 18, 24, 15, 33, 40, 45, 26, 48, 10, 8, 27, 6, 16, 38, 21, 5, 0, 14, 22, 19, 1, 35, 34, 42, 2, 39, 12, 37, 46, 11), 1157)
28: ((47, 29, 28, 20, 4, 41, 43, 36, 17, 32, 49, 25, 30, 23, 44, 31, 9, 13, 3, 7, 18, 24, 15, 33, 40, 45, 26, 48, 10, 8, 27, 6, 16, 38, 21, 5, 0, 14, 22, 19, 1, 35, 34, 42, 2, 39, 12, 37, 46, 11), 1157)
29: ((47, 29, 28, 20, 4, 41, 43, 36, 17, 32, 49, 25, 30, 23, 44, 31, 9, 13, 3, 7, 18, 24, 15, 33, 40, 45, 26, 48, 10, 8, 27, 6, 16, 38, 21, 5, 0, 14, 22, 19, 1, 35, 34, 42, 2, 39, 12, 37, 46, 11), 1157)
30: ((47, 29, 28, 20, 4, 41, 43, 36, 17, 32, 49, 25, 30, 23, 44, 31, 9, 13, 3, 7, 18, 24, 15, 33, 40, 45, 26, 48, 10, 8, 27, 6, 16, 38, 21, 5, 0, 14, 22, 19, 1, 35, 34, 42, 2, 39, 12, 37, 46, 11), 1157)
31: ((47, 29, 28, 20, 4, 41, 43, 36, 17, 32, 49, 25, 30, 23, 44, 31, 9, 13, 3, 7, 18, 24, 15, 33, 40, 45, 26, 48, 10, 8, 27, 6, 16, 38, 21, 5, 0, 14, 22, 19, 1, 35, 34, 42, 2, 39, 12, 37, 46, 11), 1157)
32: ((47, 29, 28, 20, 4, 41, 43, 36, 17, 32, 49, 25, 30, 23, 44, 31, 9, 13, 3, 7, 18, 24, 15, 33, 40, 45, 26, 48, 10, 8, 27, 6, 16, 38, 21, 5, 0, 14, 22, 19, 1, 35, 34, 42, 2, 39, 12, 37, 46, 11), 1157)
33: ((47, 29, 28, 20, 4, 41, 43, 36, 17, 32, 49, 25, 30, 23, 44, 31, 9, 13, 3, 7, 18, 24, 15, 33, 40, 45, 26, 48, 10, 8, 27, 6, 16, 38, 21, 5, 0, 14, 22, 19, 1, 35, 34, 42, 2, 39, 12, 37, 46, 11), 1157)
34: ((47, 29, 28, 20, 4, 41, 43, 36, 17, 32, 49, 25, 30, 23, 44, 31, 9, 13, 3, 7, 18, 24, 15, 33, 40, 45, 26, 48, 10, 8, 27, 6, 16, 38, 21, 5, 0, 14, 22, 19, 1, 35, 34, 42, 2, 39, 12, 37, 46, 11), 1157)
35: ((47, 29, 28, 20, 4, 41, 43, 36, 17, 32, 49, 25, 30, 23, 44, 31, 9, 13, 3, 7, 18, 24, 15, 33, 40, 45, 26, 48, 10, 8, 27, 6, 16, 38, 21, 5, 0, 14, 22, 19, 1, 35, 34, 42, 2, 39, 12, 37, 46, 11), 1157)
36: ((47, 29, 28, 20, 4, 41, 43, 36, 17, 32, 49, 25, 30, 23, 44, 31, 9, 13, 3, 7, 18, 24, 15, 33, 40, 45, 26, 48, 10, 8, 27, 6, 16, 38, 21, 5, 0, 14, 22, 19, 1, 35, 34, 42, 2, 39, 12, 37, 46, 11), 1157)
37: ((47, 29, 28, 20, 4, 41, 43, 36, 17, 32, 49, 25, 30, 23, 44, 31, 9, 13, 3, 7, 18, 24, 15, 33, 40, 45, 26, 48, 10, 8, 27, 6, 16, 38, 21, 5, 0, 14, 22, 19, 1, 35, 34, 42, 2, 39, 12, 37, 46, 11), 1157)
38: ((47, 29, 28, 20, 4, 41, 43, 36, 17, 32, 49, 25, 30, 23, 44, 31, 9, 13, 3, 7, 18, 24, 15, 33, 40, 45, 26, 48, 10, 8, 27, 6, 16, 38, 21, 5, 0, 14, 22, 19, 1, 35, 34, 42, 2, 39, 12, 37, 46, 11), 1157)
39: ((47, 29, 28, 20, 4, 41, 43, 36, 17, 32, 49, 25, 30, 23, 44, 31, 9, 13, 3, 7, 18, 24, 15, 33, 40, 45, 26, 48, 10, 8, 27, 6, 16, 38, 21, 5, 0, 14, 22, 19, 1, 35, 34, 42, 2, 39, 12, 37, 46, 11), 1157)
40: ((36, 39, 47, 15, 28, 4, 41, 17, 32, 49, 25, 30, 23, 44, 31, 9, 13, 22, 3, 7, 18, 24, 29, 33, 40, 45, 48, 10, 27, 6, 8, 2, 11, 21, 46, 26, 12, 34, 1, 37, 0, 42, 38, 20, 16, 5, 35, 19, 14, 43), 1148)
41: ((36, 39, 47, 15, 28, 4, 41, 17, 32, 49, 25, 30, 23, 44, 31, 9, 13, 22, 3, 7, 18, 24, 29, 33, 40, 45, 48, 10, 27, 6, 8, 2, 11, 21, 46, 26, 12, 34, 1, 37, 0, 42, 38, 20, 16, 5, 35, 19, 14, 43), 1148)
42: ((36, 39, 47, 15, 28, 4, 41, 17, 32, 49, 25, 30, 23, 44, 31, 9, 13, 22, 3, 7, 18, 24, 29, 33, 40, 45, 48, 10, 27, 6, 8, 2, 11, 21, 46, 26, 12, 34, 1, 37, 0, 42, 38, 20, 16, 5, 35, 19, 14, 43), 1148)
43: ((36, 39, 47, 15, 28, 4, 41, 17, 32, 49, 25, 30, 23, 44, 31, 9, 13, 22, 3, 7, 18, 24, 29, 33, 40, 45, 48, 10, 27, 6, 8, 2, 11, 21, 46, 26, 12, 34, 1, 37, 0, 42, 38, 20, 16, 5, 35, 19, 14, 43), 1148)
44: ((36, 39, 47, 15, 28, 4, 41, 17, 32, 49, 25, 30, 23, 44, 31, 9, 13, 22, 3, 7, 18, 24, 29, 33, 40, 45, 48, 10, 27, 6, 8, 2, 11, 21, 46, 26, 12, 34, 1, 37, 0, 42, 38, 20, 16, 5, 35, 19, 14, 43), 1148)
45: ((36, 39, 47, 15, 28, 4, 41, 17, 32, 49, 25, 30, 23, 44, 31, 9, 13, 22, 3, 7, 18, 24, 29, 33, 40, 45, 48, 10, 27, 6, 8, 2, 11, 21, 46, 26, 12, 34, 1, 37, 0, 42, 38, 20, 16, 5, 35, 19, 14, 43), 1148)
46: ((36, 39, 47, 15, 28, 4, 41, 17, 32, 49, 25, 30, 23, 44, 31, 9, 13, 22, 3, 7, 18, 24, 29, 33, 40, 45, 48, 10, 27, 6, 8, 2, 11, 21, 46, 26, 12, 34, 1, 37, 0, 42, 38, 20, 16, 5, 35, 19, 14, 43), 1148)
47: ((36, 39, 47, 15, 28, 4, 41, 17, 32, 49, 25, 30, 23, 44, 31, 9, 13, 22, 3, 7, 18, 24, 29, 33, 40, 45, 48, 10, 27, 6, 8, 2, 11, 21, 46, 26, 12, 34, 1, 37, 0, 42, 38, 20, 16, 5, 35, 19, 14, 43), 1148)
48: ((36, 39, 47, 15, 28, 4, 41, 17, 32, 49, 25, 30, 23, 44, 31, 9, 13, 22, 3, 7, 18, 24, 29, 33, 40, 45, 48, 10, 27, 6, 8, 2, 11, 21, 46, 26, 12, 34, 1, 37, 0, 42, 38, 20, 16, 5, 35, 19, 14, 43), 1148)
49: ((36, 39, 47, 15, 28, 4, 41, 17, 32, 49, 25, 30, 23, 44, 31, 9, 13, 22, 3, 7, 18, 24, 29, 33, 40, 45, 48, 10, 27, 6, 8, 2, 11, 21, 46, 26, 12, 34, 1, 37, 0, 42, 38, 20, 16, 5, 35, 19, 14, 43), 1148)
50: ((36, 39, 47, 15, 28, 4, 41, 17, 32, 49, 25, 30, 23, 44, 31, 9, 13, 22, 3, 7, 18, 24, 29, 33, 40, 45, 48, 10, 27, 6, 8, 2, 11, 21, 46, 26, 12, 34, 1, 37, 0, 42, 38, 20, 16, 5, 35, 19, 14, 43), 1148)
51: ((36, 39, 47, 15, 28, 4, 41, 17, 32, 49, 25, 30, 23, 44, 31, 9, 13, 22, 3, 7, 18, 24, 29, 33, 40, 45, 48, 10, 27, 6, 8, 2, 11, 21, 46, 26, 12, 34, 1, 37, 0, 42, 38, 20, 16, 5, 35, 19, 14, 43), 1148)
52: ((36, 39, 47, 15, 28, 4, 41, 17, 32, 49, 25, 30, 23, 44, 31, 9, 13, 22, 3, 7, 18, 24, 29, 33, 40, 45, 48, 10, 27, 6, 8, 2, 11, 21, 46, 26, 12, 34, 1, 37, 0, 42, 38, 20, 16, 5, 35, 19, 14, 43), 1148)
53: ((36, 39, 47, 15, 28, 4, 41, 17, 32, 49, 25, 30, 23, 44, 31, 9, 13, 22, 3, 7, 18, 24, 29, 33, 40, 45, 48, 10, 27, 6, 8, 2, 11, 21, 46, 26, 12, 34, 1, 37, 0, 42, 38, 20, 16, 5, 35, 19, 14, 43), 1148)
54: ((36, 39, 47, 15, 28, 4, 41, 17, 32, 49, 25, 30, 23, 44, 31, 9, 13, 22, 3, 7, 18, 24, 29, 33, 40, 45, 48, 10, 27, 6, 8, 2, 11, 21, 46, 26, 12, 34, 1, 37, 0, 42, 38, 20, 16, 5, 35, 19, 14, 43), 1148)
55: ((36, 39, 47, 15, 28, 4, 41, 17, 32, 49, 25, 30, 23, 44, 31, 9, 13, 22, 3, 7, 18, 24, 29, 33, 40, 45, 48, 10, 27, 6, 8, 2, 11, 21, 46, 26, 12, 34, 1, 37, 0, 42, 38, 20, 16, 5, 35, 19, 14, 43), 1148)
56: ((36, 39, 47, 15, 28, 4, 41, 17, 32, 49, 25, 30, 23, 44, 31, 9, 13, 22, 3, 7, 18, 24, 29, 33, 40, 45, 48, 10, 27, 6, 8, 2, 11, 21, 46, 26, 12, 34, 1, 37, 0, 42, 38, 20, 16, 5, 35, 19, 14, 43), 1148)
57: ((36, 39, 47, 15, 28, 4, 41, 17, 32, 49, 25, 30, 23, 44, 31, 9, 13, 22, 3, 7, 18, 24, 29, 33, 40, 45, 48, 10, 27, 6, 8, 2, 11, 21, 46, 26, 12, 34, 1, 37, 0, 42, 38, 20, 16, 5, 35, 19, 14, 43), 1148)
58: ((36, 39, 47, 15, 28, 4, 41, 17, 32, 49, 25, 30, 23, 44, 31, 9, 13, 22, 3, 7, 18, 24, 29, 33, 40, 45, 48, 10, 27, 6, 8, 2, 11, 21, 46, 26, 12, 34, 1, 37, 0, 42, 38, 20, 16, 5, 35, 19, 14, 43), 1148)
59: ((36, 39, 47, 15, 28, 4, 41, 17, 32, 49, 25, 30, 23, 44, 31, 9, 13, 22, 3, 7, 18, 24, 29, 33, 40, 45, 48, 10, 27, 6, 8, 2, 11, 21, 46, 26, 12, 34, 1, 37, 0, 42, 38, 20, 16, 5, 35, 19, 14, 43), 1148)
60: ((36, 39, 47, 15, 28, 4, 41, 17, 32, 49, 25, 30, 23, 44, 31, 9, 13, 22, 3, 7, 18, 24, 29, 33, 40, 45, 48, 10, 27, 6, 8, 2, 11, 21, 46, 26, 12, 34, 1, 37, 0, 42, 38, 20, 16, 5, 35, 19, 14, 43), 1148)
61: ((36, 39, 47, 15, 28, 4, 41, 17, 32, 49, 25, 30, 23, 44, 31, 9, 13, 22, 3, 7, 18, 24, 29, 33, 40, 45, 48, 10, 27, 6, 8, 2, 11, 21, 46, 26, 12, 34, 1, 37, 0, 42, 38, 20, 16, 5, 35, 19, 14, 43), 1148)
62: ((36, 39, 47, 15, 28, 4, 41, 17, 32, 49, 25, 30, 23, 44, 31, 9, 13, 22, 3, 7, 18, 24, 29, 33, 40, 45, 48, 10, 27, 6, 8, 2, 11, 21, 46, 26, 12, 34, 1, 37, 0, 42, 38, 20, 16, 5, 35, 19, 14, 43), 1148)
63: ((36, 39, 47, 15, 28, 4, 41, 17, 32, 49, 25, 30, 23, 44, 31, 9, 13, 22, 3, 7, 18, 24, 29, 33, 40, 45, 48, 10, 27, 6, 8, 2, 11, 21, 46, 26, 12, 34, 1, 37, 0, 42, 38, 20, 16, 5, 35, 19, 14, 43), 1148)
64: ((36, 39, 47, 15, 28, 4, 41, 17, 32, 49, 25, 30, 23, 44, 31, 9, 13, 22, 3, 7, 18, 24, 29, 33, 40, 45, 48, 10, 27, 6, 8, 2, 11, 21, 46, 26, 12, 34, 1, 37, 0, 42, 38, 20, 16, 5, 35, 19, 14, 43), 1148)
65: ((36, 39, 47, 15, 28, 4, 41, 17, 32, 49, 25, 30, 23, 44, 31, 9, 13, 22, 3, 7, 18, 24, 29, 33, 40, 45, 48, 10, 27, 6, 8, 2, 11, 21, 46, 26, 12, 34, 1, 37, 0, 42, 38, 20, 16, 5, 35, 19, 14, 43), 1148)
66: ((36, 39, 47, 15, 28, 4, 41, 17, 32, 49, 25, 30, 23, 44, 31, 9, 13, 22, 3, 7, 18, 24, 29, 33, 40, 45, 48, 10, 27, 6, 8, 2, 11, 21, 46, 26, 12, 34, 1, 37, 0, 42, 38, 20, 16, 5, 35, 19, 14, 43), 1148)
67: ((36, 39, 47, 15, 28, 4, 41, 17, 32, 49, 25, 30, 23, 44, 31, 9, 13, 22, 3, 7, 18, 24, 29, 33, 40, 45, 48, 10, 27, 6, 8, 2, 11, 21, 46, 26, 12, 34, 1, 37, 0, 42, 38, 20, 16, 5, 35, 19, 14, 43), 1148)
68: ((36, 39, 47, 15, 28, 4, 41, 17, 32, 49, 25, 30, 23, 44, 31, 9, 13, 22, 3, 7, 18, 24, 29, 33, 40, 45, 48, 10, 27, 6, 8, 2, 11, 21, 46, 26, 12, 34, 1, 37, 0, 42, 38, 20, 16, 5, 35, 19, 14, 43), 1148)
69: ((36, 39, 47, 15, 28, 4, 41, 17, 32, 49, 25, 30, 23, 44, 31, 9, 13, 22, 3, 7, 18, 24, 29, 33, 40, 45, 48, 10, 27, 6, 8, 2, 11, 21, 46, 26, 12, 34, 1, 37, 0, 42, 38, 20, 16, 5, 35, 19, 14, 43), 1148)
70: ((36, 39, 47, 15, 28, 4, 41, 17, 32, 49, 25, 30, 23, 44, 31, 9, 13, 22, 3, 7, 18, 24, 29, 33, 40, 45, 48, 10, 27, 6, 8, 2, 11, 21, 46, 26, 12, 34, 1, 37, 0, 42, 38, 20, 16, 5, 35, 19, 14, 43), 1148)
71: ((36, 39, 47, 15, 28, 4, 41, 17, 32, 49, 25, 30, 23, 44, 31, 9, 13, 22, 3, 7, 18, 24, 29, 33, 40, 45, 48, 10, 27, 6, 8, 2, 11, 21, 46, 26, 12, 34, 1, 37, 0, 42, 38, 20, 16, 5, 35, 19, 14, 43), 1148)
72: ((36, 39, 47, 15, 28, 4, 41, 17, 32, 49, 25, 30, 23, 44, 31, 9, 13, 22, 3, 7, 18, 24, 29, 33, 40, 45, 48, 10, 27, 6, 8, 2, 11, 21, 46, 26, 12, 34, 1, 37, 0, 42, 38, 20, 16, 5, 35, 19, 14, 43), 1148)
73: ((36, 39, 47, 15, 28, 4, 41, 17, 32, 49, 25, 30, 23, 44, 31, 9, 13, 22, 3, 7, 18, 24, 29, 33, 40, 45, 48, 10, 27, 6, 8, 2, 11, 21, 46, 26, 12, 34, 1, 37, 0, 42, 38, 20, 16, 5, 35, 19, 14, 43), 1148)
74: ((36, 39, 47, 15, 28, 4, 41, 17, 32, 49, 25, 30, 23, 44, 31, 9, 13, 22, 3, 7, 18, 24, 29, 33, 40, 45, 48, 10, 27, 6, 8, 2, 11, 21, 46, 26, 12, 34, 1, 37, 0, 42, 38, 20, 16, 5, 35, 19, 14, 43), 1148)
75: ((36, 39, 47, 15, 28, 4, 41, 17, 32, 49, 25, 30, 23, 44, 31, 9, 13, 22, 3, 7, 18, 24, 29, 33, 40, 45, 48, 10, 27, 6, 8, 2, 11, 21, 46, 26, 12, 34, 1, 37, 0, 42, 38, 20, 16, 5, 35, 19, 14, 43), 1148)
76: ((36, 39, 47, 15, 28, 4, 41, 17, 32, 49, 25, 30, 23, 44, 31, 9, 13, 22, 3, 7, 18, 24, 29, 33, 40, 45, 48, 10, 27, 6, 8, 2, 11, 21, 46, 26, 12, 34, 1, 37, 0, 42, 38, 20, 16, 5, 35, 19, 14, 43), 1148)
77: ((36, 39, 47, 15, 28, 4, 41, 17, 32, 49, 25, 30, 23, 44, 31, 9, 13, 22, 3, 7, 18, 24, 29, 33, 40, 45, 48, 10, 27, 6, 8, 2, 11, 21, 46, 26, 12, 34, 1, 37, 0, 42, 38, 20, 16, 5, 35, 19, 14, 43), 1148)
78: ((36, 39, 47, 15, 28, 4, 41, 17, 32, 49, 25, 30, 23, 44, 31, 9, 13, 22, 3, 7, 18, 24, 29, 33, 40, 45, 48, 10, 27, 6, 8, 2, 11, 21, 46, 26, 12, 34, 1, 37, 0, 42, 38, 20, 16, 5, 35, 19, 14, 43), 1148)
79: ((38, 47, 15, 28, 20, 4, 41, 17, 32, 49, 30, 25, 23, 44, 31, 9, 13, 22, 7, 24, 29, 33, 40, 45, 26, 48, 10, 27, 3, 18, 8, 6, 21, 5, 0, 14, 1, 46, 36, 35, 12, 39, 42, 43, 2, 37, 34, 11, 19, 16), 1147)
80: ((38, 47, 15, 28, 20, 4, 41, 17, 32, 49, 30, 25, 23, 44, 31, 9, 13, 22, 7, 24, 29, 33, 40, 45, 26, 48, 10, 27, 3, 18, 8, 6, 21, 5, 0, 14, 1, 46, 36, 35, 12, 39, 42, 43, 2, 37, 34, 11, 19, 16), 1147)
81: ((38, 47, 15, 28, 20, 4, 41, 17, 32, 49, 30, 25, 23, 44, 31, 9, 13, 22, 7, 24, 29, 33, 40, 45, 26, 48, 10, 27, 3, 18, 8, 6, 21, 5, 0, 14, 1, 46, 36, 35, 12, 39, 42, 43, 2, 37, 34, 11, 19, 16), 1147)
82: ((48, 47, 15, 28, 20, 4, 41, 17, 32, 49, 25, 30, 23, 43, 44, 31, 9, 13, 24, 29, 33, 22, 5, 36, 39, 3, 14, 2, 27, 19, 8, 11, 7, 18, 45, 46, 34, 1, 38, 26, 0, 16, 42, 21, 40, 12, 37, 35, 6, 10), 1146)
83: ((48, 47, 15, 28, 20, 4, 41, 17, 32, 49, 25, 30, 23, 43, 44, 31, 9, 13, 24, 29, 33, 22, 5, 36, 39, 3, 14, 2, 27, 19, 8, 11, 7, 18, 45, 46, 34, 1, 38, 26, 0, 16, 42, 21, 40, 12, 37, 35, 6, 10), 1146)
84: ((48, 47, 15, 28, 20, 4, 41, 17, 32, 49, 25, 30, 23, 43, 44, 31, 9, 13, 24, 29, 33, 22, 5, 36, 39, 3, 14, 2, 27, 19, 8, 11, 7, 18, 45, 46, 34, 1, 38, 26, 0, 16, 42, 21, 40, 12, 37, 35, 6, 10), 1146)
85: ((48, 47, 15, 28, 20, 4, 41, 17, 32, 49, 25, 30, 23, 43, 44, 31, 9, 13, 24, 29, 33, 22, 5, 36, 39, 3, 14, 2, 27, 19, 8, 11, 7, 18, 45, 46, 34, 1, 38, 26, 0, 16, 42, 21, 40, 12, 37, 35, 6, 10), 1146)
86: ((48, 47, 15, 28, 20, 4, 41, 17, 32, 49, 25, 30, 23, 43, 44, 31, 9, 13, 24, 29, 33, 22, 5, 36, 39, 3, 14, 2, 27, 19, 8, 11, 7, 18, 45, 46, 34, 1, 38, 26, 0, 16, 42, 21, 40, 12, 37, 35, 6, 10), 1146)
87: ((48, 47, 15, 28, 20, 4, 41, 17, 32, 49, 25, 30, 23, 43, 44, 31, 9, 13, 24, 29, 33, 22, 5, 36, 39, 3, 14, 2, 27, 19, 8, 11, 7, 18, 45, 46, 34, 1, 38, 26, 0, 16, 42, 21, 40, 12, 37, 35, 6, 10), 1146)
88: ((48, 47, 15, 28, 20, 4, 41, 17, 32, 49, 25, 30, 23, 43, 44, 31, 9, 13, 24, 29, 33, 22, 5, 36, 39, 3, 14, 2, 27, 19, 8, 11, 7, 18, 45, 46, 34, 1, 38, 26, 0, 16, 42, 21, 40, 12, 37, 35, 6, 10), 1146)
89: ((48, 47, 15, 28, 20, 4, 41, 17, 32, 49, 25, 30, 23, 43, 44, 31, 9, 13, 24, 29, 33, 22, 5, 36, 39, 3, 14, 2, 27, 19, 8, 11, 7, 18, 45, 46, 34, 1, 38, 26, 0, 16, 42, 21, 40, 12, 37, 35, 6, 10), 1146)
90: ((48, 47, 15, 28, 20, 4, 41, 17, 32, 49, 25, 30, 23, 43, 44, 31, 9, 13, 24, 29, 33, 22, 5, 36, 39, 3, 14, 2, 27, 19, 8, 11, 7, 18, 45, 46, 34, 1, 38, 26, 0, 16, 42, 21, 40, 12, 37, 35, 6, 10), 1146)
91: ((48, 47, 15, 28, 20, 4, 41, 17, 32, 49, 25, 30, 23, 43, 44, 31, 9, 13, 24, 29, 33, 22, 5, 36, 39, 3, 14, 2, 27, 19, 8, 11, 7, 18, 45, 46, 34, 1, 38, 26, 0, 16, 42, 21, 40, 12, 37, 35, 6, 10), 1146)
92: ((48, 47, 15, 28, 20, 4, 41, 17, 32, 49, 25, 30, 23, 43, 44, 31, 9, 13, 24, 29, 33, 22, 5, 36, 39, 3, 14, 2, 27, 19, 8, 11, 7, 18, 45, 46, 34, 1, 38, 26, 0, 16, 42, 21, 40, 12, 37, 35, 6, 10), 1146)
93: ((48, 47, 15, 28, 20, 4, 41, 17, 32, 49, 25, 30, 23, 43, 44, 31, 9, 13, 24, 29, 33, 22, 5, 36, 39, 3, 14, 2, 27, 19, 8, 11, 7, 18, 45, 46, 34, 1, 38, 26, 0, 16, 42, 21, 40, 12, 37, 35, 6, 10), 1146)
94: ((48, 47, 15, 28, 20, 4, 41, 17, 32, 49, 25, 30, 23, 43, 44, 31, 9, 13, 24, 29, 33, 22, 5, 36, 39, 3, 14, 2, 27, 19, 8, 11, 7, 18, 45, 46, 34, 1, 38, 26, 0, 16, 42, 21, 40, 12, 37, 35, 6, 10), 1146)
95: ((48, 47, 15, 28, 20, 4, 41, 17, 32, 49, 25, 30, 23, 43, 44, 31, 9, 13, 24, 29, 33, 22, 5, 36, 39, 3, 14, 2, 27, 19, 8, 11, 7, 18, 45, 46, 34, 1, 38, 26, 0, 16, 42, 21, 40, 12, 37, 35, 6, 10), 1146)
Best: ((48, 47, 15, 28, 20, 4, 41, 17, 32, 49, 25, 30, 23, 43, 44, 31, 9, 13, 24, 29, 33, 22, 5, 36, 39, 3, 14, 2, 27, 19, 8, 11, 7, 18, 45, 46, 34, 1, 38, 26, 0, 16, 42, 21, 40, 12, 37, 35, 6, 10), 1146)
Runtime: 320.9481137 s